&CONTROL
  calculation = 'md',
  dt = 20.67055,
  nstep = 250,
  pseudo_dir = '/usr/local/group/oprezhdo_group/QE_PP/upf_files/',
  outdir = './',
  prefix = 'x',
  disk_io = 'low',
/

&SYSTEM
  ibrav = 0,
  celldm(1) = 1.89,
  nat = 72,
  ntyp = 2,
  nspin = 1,
  nbnd = 112,
  ecutwfc = 40,
  ecutrho = 400,
  tot_charge = 0.0,
  nosym = .true.,
  input_dft = 'vdw-df2'

/

&ELECTRONS
  electron_maxstep = 300,
  conv_thr = 1.D-5,
  mixing_beta = 0.45,
/

&IONS
  ion_dynamics = 'verlet',
  ion_temperature = 'andersen',
  tempw = 300.00 ,
  nraise = 25,
  pot_extrapolation = 'second_order',
  wfc_extrapolation = 'second_order', 
/


ATOMIC_SPECIES
 C  12.01  C.pbe-rrkjus.UPF
 H  1.008  H.pbe-rrkjus.UPF


K_POINTS gamma                  
                                
CELL_PARAMETERS (alat=  1.89000000)
  16.116539864   0.078130078  -0.697183479
  -0.215286547   4.388770959   1.408748185
  -0.216095729   1.732557958   9.747552271

ATOMIC_POSITIONS (alat)
C        2.348271722   0.224137771   1.676656800
C        3.561272176  -0.412493854   1.855805011
C        4.787057709   0.320102302   1.703458444
C        4.727009612   1.706550212   1.363751427
C        3.442898904   2.326955203   1.195116671
C        2.288435061   1.579722541   1.332137789
C        6.036013039  -0.310389997   1.849312722
C        5.915525043   2.441915019   1.214026160
C        7.182824506   1.814396025   1.352473638
C        7.243194683   0.420702682   1.682177175
C        8.502857553  -0.210646930   1.813472750
H        8.550905784  -1.197741574   2.243916162
C        9.699207162   0.527253756   1.654330804
C        9.640028829   1.919931483   1.324557558
C        8.381010917   2.552174524   1.192593151
H        6.080487739  -1.299295012   2.277021256
H        1.430049116  -0.339092401   1.783999066
H        3.597039251  -1.415901626   2.247246075
H        3.402317215   3.328118957   0.802565551
H        1.323852613   2.047613131   1.186084510
H        5.870298893   3.437916738   0.801869194
H        8.335630407   3.538986339   0.759701450
C       10.849702176   2.651316300   1.168092803
C       10.962714906  -0.103135509   1.800860217
H       11.001460796  -1.096155202   2.220299664
C       12.151377153   0.632386247   1.660199910
C       12.096463062   2.018757741   1.320511202
C       13.430066367   0.007441334   1.838227948
H       13.458983030  -0.995194608   2.228636966
C       14.587596862   0.751894705   1.718455193
H       15.548339758   0.280895413   1.878656720
C       14.536810639   2.108441926   1.375868541
C       13.326002519   2.748629067   1.185122509
H       13.293467957   3.746970200   0.782780127
H       10.806529454   3.644342902   0.750500255
H       15.460218733   2.665844160   1.279543330
C        2.233489749   1.254827077   5.890077051
C        3.439449717   0.852336696   5.348343690
C        4.671534092   1.382956145   5.860124679
C        4.629531552   2.313367678   6.942767370
C        3.354192363   2.698981425   7.478287949
C        2.192628134   2.156702511   6.960425259
C        5.910761589   0.976927120   5.334539683
C        5.827072807   2.851940206   7.446999151
C        7.084986601   2.447498114   6.923229400
C        7.125848989   1.506600535   5.844054576
C        8.374368935   1.095245918   5.321619616
H        8.400646244   0.539784601   4.397106750
C        9.581574462   1.617417222   5.839880965
C        9.544649265   2.557979362   6.920274693
C        8.294508191   2.977388426   7.434673942
H        5.937518768   0.417465899   4.413989351
H        1.306493221   0.847318936   5.504612060
H        3.462217034   0.262929738   4.447610573
H        3.328263488   3.284568785   8.381598025
H        1.237182752   2.443991775   7.376798116
H        5.803432324   3.409501052   8.369449283
H        8.275825188   3.535291383   8.357033826
C       10.766540043   3.078377713   7.430320983
C       10.835626603   1.198603962   5.318647407
H       10.854148993   0.635000754   4.399522547
C       12.036732516   1.723336550   5.823620916
C       12.002756500   2.659193124   6.901872651
C       13.304658757   1.317472020   5.287002505
H       13.316575418   0.729423207   4.385041969
C       14.472404553   1.845877365   5.801343172
H       15.421911144   1.530510035   5.392504331
C       14.443174263   2.754353452   6.865962009
C       13.243313478   3.175700256   7.410514895
H       13.233846815   3.761435863   8.314104769
H       10.752671050   3.635979808   8.353955029
H       15.378537083   3.144464418   7.248516638



