&inputpp
  prefix = 'x0',
  outdir = './',
  pseudo_dir = '/home/rcf-proj2/op/akimov/QE_PP/PSEUDOPOTENTIALS/',
  psfile(1) = 'C.pbe-n-rrkjus_psl.0.1.UPF',
  psfile(2) = 'H.pbe-rrkjus_psl.0.1.UPF',
  single_file = .FALSE.,
  ascii = .TRUE.,
  uspp_spsi = .FALSE.,
/
